db/data/29138140449753279137410220852006012166.z3.out
sat
-------------------
11.703108173
